decision_x1=[0,2];
decision_x2=[0,2];
decision_x3=[0,2];
decision_x4=[0,2];
decision_x5=[0,2];
decision_x6=[0,2];
decision_x7=[0,2];
decision_x8=[0,2];
decision_x9=[0,2];
decision_x10=[0,2];
random_y1=[0,2];
random_y2=[0,2];
constraint_x2_x1=[
0,1,6.5|
0,2,9.3|
1,0,9.7|
1,2,4.6|
2,0,6.7|
2,1,8|
];
constraint_x3_x2=[
0,1,7.6|
0,2,0.89|
1,0,9.8|
1,2,3.9|
2,0,3.6|
2,1,7.5|
];
constraint_x5_x1=[
0,1,1.6|
0,2,8.4|
1,0,3.8|
1,2,7.8|
2,0,9.8|
2,1,8.8|
];
constraint_x5_x2=[
0,1,7.6|
0,2,7|
1,0,1.2|
1,2,8.1|
2,0,6.3|
2,1,4|
];
constraint_x5_x3=[
0,1,1.6|
0,2,6.7|
1,0,9.8|
1,2,3.9|
2,0,1.6|
2,1,7.9|
];
constraint_x6_x1=[
0,1,3|
0,2,2.2|
1,0,0.98|
1,2,2.6|
2,0,1.7|
2,1,0.45|
];
constraint_x6_x2=[
0,1,5.1|
0,2,9.2|
1,0,9.4|
1,2,7.2|
2,0,3.4|
2,1,7|
];
constraint_x7_x1=[
0,1,7.1|
0,2,2.5|
1,0,5.5|
1,2,0.56|
2,0,9.8|
2,1,8|
];
constraint_x7_x3=[
0,1,7.7|
0,2,6.4|
1,0,1.2|
1,2,6.6|
2,0,7.8|
2,1,8.9|
];
constraint_x7_x4=[
0,1,9.7|
0,2,5.1|
1,0,7|
1,2,6.6|
2,0,7.3|
2,1,2.2|
];
constraint_x7_x5=[
0,1,4.6|
0,2,1.2|
1,0,3.6|
1,2,8.1|
2,0,7.7|
2,1,0.73|
];
constraint_x7_x6=[
0,1,2.7|
0,2,0.98|
1,0,8.8|
1,2,7.9|
2,0,2.3|
2,1,0.76|
];
constraint_x8_x1=[
0,1,6.4|
0,2,6.1|
1,0,5.4|
1,2,4.6|
2,0,0.43|
2,1,2.4|
];
constraint_x8_x2=[
0,1,4.6|
0,2,4.3|
1,0,2.4|
1,2,6.3|
2,0,6.9|
2,1,0.54|
];
constraint_x8_x5=[
0,1,0.89|
0,2,0.51|
1,0,9.9|
1,2,6.1|
2,0,5.4|
2,1,3.6|
];
constraint_x9_x1=[
0,1,3|
0,2,0.56|
1,0,1.1|
1,2,6.5|
2,0,0.39|
2,1,2.6|
];
constraint_x9_x4=[
0,1,8.7|
0,2,1.2|
1,0,2.2|
1,2,6.6|
2,0,3.2|
2,1,2.4|
];
constraint_x9_x8=[
0,1,1.7|
0,2,4.5|
1,0,1.2|
1,2,6.8|
2,0,8.3|
2,1,9.8|
];
constraint_x10_x2=[
0,1,9.8|
0,2,4.2|
1,0,4.2|
1,2,7.8|
2,0,9.7|
2,1,1.1|
];
constraint_x10_x3=[
0,1,2.3|
0,2,2|
1,0,1.3|
1,2,6.3|
2,0,3.6|
2,1,8.4|
];
constraint_x10_x4=[
0,1,1.4|
0,2,0.14|
1,0,9.5|
1,2,8.5|
2,0,2.5|
2,1,5.6|
];
constraint_x10_x6=[
0,1,7.6|
0,2,4.9|
1,0,5.5|
1,2,9.4|
2,0,4|
2,1,5.2|
];
constraint_x10_x8=[
0,1,2.4|
0,2,1.3|
1,0,4.8|
1,2,7.4|
2,0,6|
2,1,0.17|
];
constraint_x1_y1=[
0,0,7.5|
0,1,6.2|
0,2,0.96|
1,0,9.2|
1,1,5.6|
1,2,7.8|
2,0,2.7|
2,1,1.7|
2,2,2.2|
];
constraint_x2_y2=[
0,0,1.7|
0,1,6.7|
0,2,8.3|
1,0,3.8|
1,1,1.1|
1,2,8|
2,0,3.1|
2,1,6.5|
2,2,7.7|
];
initial_distribution_y1=[0.012,0.44,0.55];
initial_distribution_y2=[0.3,0.38,0.32];
transition_y1=[
0.32,0.47,0.22|
0.47,0.24,0.29|
0.37,0.19,0.44|
];
transition_y2=[
0.36,0.35,0.29|
0.15,0.67,0.18|
0.22,0.52,0.26|
];
